\ This file has been generated by DOcplex
\ ENCODING=ISO-8859-1
\Problem name: random_problem.lp

Minimize
 obj: - 492 x0 - 246 x1 - 123 x2 - 164 x3 - 82 x4 - 41 x5 + 1244 x6 + 622 x7
      + 311 x8 + [ 15520 x0^2 + 15520 x0*x1 + 7760 x0*x2 - 3840 x0*x3
      - 1920 x0*x4 - 960 x0*x5 + 4096 x0*x6 + 2048 x0*x7 + 1024 x0*x8
      + 3880 x1^2 + 3880 x1*x2 - 1920 x1*x3 - 960 x1*x4 - 480 x1*x5 + 2048 x1*x6
      + 1024 x1*x7 + 512 x1*x8 + 970 x2^2 - 960 x2*x3 - 480 x2*x4 - 240 x2*x5
      + 1024 x2*x6 + 512 x2*x7 + 256 x2*x8 + 2848 x3^2 + 2848 x3*x4 + 1424 x3*x5
      + 1792 x3*x6 + 896 x3*x7 + 448 x3*x8 + 712 x4^2 + 712 x4*x5 + 896 x4*x6
      + 448 x4*x7 + 224 x4*x8 + 178 x5^2 + 448 x5*x6 + 224 x5*x7 + 112 x5*x8
      + 14272 x6^2 + 14272 x6*x7 + 7136 x6*x8 + 3568 x7^2 + 3568 x7*x8
      + 892 x8^2 ]/2
Subject To
 c0: 4 x0 + 2 x1 + x2 + 4 x3 + 2 x4 + x5 + 4 x6 + 2 x7 + x8 = 7

Bounds
 0 <= x0 <= 1
 0 <= x1 <= 1
 0 <= x2 <= 1
 0 <= x3 <= 1
 0 <= x4 <= 1
 0 <= x5 <= 1
 0 <= x6 <= 1
 0 <= x7 <= 1
 0 <= x8 <= 1

Binaries
 x0 x1 x2 x3 x4 x5 x6 x7 x8
End
